data/solutions/recovery/wellformed/moderate/flexible/wellformed_moderate_instance53/20.sol
Elapsed time: 0.02
Upper bound: 4601.0
Planning weighted value: 141511.0
C[0]=4601.0
C[1]=4466.0
C[2]=3923.0
C[3]=3733.0
C[4]=3616.0
y[0]=4
y[1]=3
y[2]=3
y[3]=0
y[4]=4
y[5]=3
y[6]=2
y[7]=1
y[8]=4
y[9]=1
y[10]=1
y[11]=2
y[12]=3
y[13]=2
y[14]=1
y[15]=1
y[16]=0
y[17]=1
y[18]=0
y[19]=3
