data/solutions/recovery/wellformed/moderate/flexible/wellformed_moderate_instance53/20.log

Log started (V12.6.3.0) Fri Apr 20 20:56:36 2018

New value for default parallel thread count: 1

Problem '/tmp/tmpuCRC7P.pyomo.lp' read.
Read time = 0.00 sec. (0.03 ticks)

Problem name         : /tmp/tmpuCRC7P.pyomo.lp
Objective sense      : Minimize
Variables            :     107  [Nneg: 1,  Binary: 100,  General Integer: 6]
Objective nonzeros   :       1
Linear constraints   :      51  [Less: 25,  Equal: 26]
  Nonzeros           :    1811
  RHS nonzeros       :      41

Variables            : Min LB: 0.000000         Max UB: 1.000000       
Objective nonzeros   : Min   : 1.000000         Max   : 1.000000       
Linear constraints   :
  Nonzeros           : Min   : 1.000000         Max   : 1636.000       
  RHS nonzeros       : Min   : 1.000000         Max   : 2.000000       
Tried aggregator 2 times.
MIP Presolve eliminated 20 rows and 5 columns.
Aggregator did 6 substitutions.
Reduced MIP has 25 rows, 96 columns, and 271 nonzeros.
Reduced MIP has 95 binaries, 1 generals, 0 SOSs, and 0 indicators.
Presolve time = 0.00 sec. (0.73 ticks)
Found incumbent of value 20339.000000 after 0.00 sec. (0.90 ticks)
Probing time = 0.00 sec. (0.08 ticks)
Cover probing fixed 0 vars, tightened 3 bounds.
Tried aggregator 1 time.
Reduced MIP has 25 rows, 96 columns, and 271 nonzeros.
Reduced MIP has 95 binaries, 1 generals, 0 SOSs, and 0 indicators.
Presolve time = 0.00 sec. (0.19 ticks)
Probing time = 0.00 sec. (0.06 ticks)
Clique table members: 19.
MIP emphasis: balance optimality and feasibility.
MIP search method: dynamic search.
Parallel mode: none, using 1 thread.
Root relaxation solution time = 0.00 sec. (0.07 ticks)

        Nodes                                         Cuts/
   Node  Left     Objective  IInf  Best Integer    Best Bound    ItCnt     Gap

*     0+    0                        20339.0000     1636.0000            91.96%
      0     0     4067.8000     7    20339.0000     4067.8000        5   80.00%
*     0+    0                         5903.0000     4067.8000            31.09%
      0     0     4162.7389    14     5903.0000       Cuts: 6       22   29.48%
*     0+    0                         4601.0000     4162.7389             9.53%
      0     0     4228.1466    16     4601.0000       Cuts: 7       35    8.10%
      0     0     4343.5859     9     4601.0000       Cuts: 9       55    5.59%
      0     0     4382.0000     6     4601.0000    MIRcuts: 3       58    4.76%
      0     0     4466.0000     4     4601.0000       Cuts: 3       65    2.93%

Repeating presolve.
Presolve time = 0.00 sec. (0.12 ticks)
Represolve time = 0.00 sec. (0.13 ticks)

Root node processing (before b&c):
  Real time             =    0.01 sec. (7.51 ticks)
Sequential b&c:
  Real time             =    0.00 sec. (0.00 ticks)
                          ------------
Total (root+branch&cut) =    0.01 sec. (7.51 ticks)

Solution pool: 3 solutions saved.

MIP - Integer optimal solution:  Objective =  4.6010000000e+03
Solution time =    0.01 sec.  Iterations = 65  Nodes = 0
Deterministic time = 7.51 ticks  (566.65 ticks/sec)


Incumbent solution written to file '/tmp/tmp7o4M_0.cplex.sol'.
